c 221_4_checker_6cl.cnf
c
c field = 221
c formula set type = 4_checker_6cl
c
p cnf 6 8
432 
434 
436 
438 
-430 
-442 
433 
435 
437 
439 
-431 
-443 
434 
436 
438 
442 
-432 
-444 
435 
437 
439 
443 
-433 
-445 
436 
438 
442 
444 
-434 
-446 
437 
439 
443 
445 
-435 
-447 
438 
442 
444 
446 
-436 
-448 
439 
443 
445 
447 
-437 
-449 
